/*********************************************
 * OPL 12.6.0.0 Data
 * Author: Adrian Rodriguez Bazaga, Pau Rodriguez Esmerats
 * Creation Date: 05/01/2018 at 12:30:12
 *********************************************/

maxConsec=10;
maxPresence=20;
maxHours=9;
minHours=1;
hours=72;
demand= [76 100 100 70 77 47 53 47 53 47 53 47 30 0 0 0 0 0 0 0 0 0 0 0 0 0 0 0 0 0 0 0 0 0 0 0 0 0 0 0 0 0 0 0 0 0 0 0 0 0 0 0 0 0 0 0 0 0 0 0 0 0 0 0 0 0 0 0 0 0 0 0  ];
nNurses=160;
